RT is False
Default write of storage_offers_DA.csv just to have a file (but constraint should be inactive)
Reading model...
...model read.
creating competitive generators file...
...competitive generators recorded.
Loading data...
.. day-ahead data with real-time VRE data read.
Compiling instance...
...instance created.
Creating Offer Mitigation (model will solve as dispatch if TRUE)...
NOTE: storage offers will not be mitigated
...storage offer mitigation file created
Converting model to MPEC...
...converted
NOTE: initial MIP solve with only storage competitive to get feasible solution
Solving...

Welcome to IBM(R) ILOG(R) CPLEX(R) Interactive Optimizer 12.9.0.0
  with Simplex, Mixed Integer & Barrier Optimizers
5725-A06 5725-A29 5724-Y48 5724-Y49 5724-Y54 5724-Y55 5655-Y21
Copyright IBM Corp. 1988, 2019.  All Rights Reserved.

Type 'help' for a list of available commands.
Type 'help' followed by a command name for more
information on commands.

CPLEX> Logfile 'cplex.log' closed.
Logfile 'C:\Users\llavin\Desktop\test826\logs\tmpw5ao8ehr.cplex.log' open.
CPLEX> New value for parallel optimization mode: -1
CPLEX> New value for emphasis for MIP optimization: 1
CPLEX> New value for mixed integer optimality gap tolerance: 0.01
CPLEX> New value for integrality tolerance: 1e-12
CPLEX> New value for deterministic time limit in ticks: 75000
CPLEX> Problem 'C:\Users\llavin\Desktop\test826\logs\tmps8mu28qo.pyomo.lp' read.
Read time = 0.22 sec. (13.92 ticks)
CPLEX> Problem name         : C:\Users\llavin\Desktop\test826\logs\tmps8mu28qo.pyomo.lp
Objective sense      : Maximize
Variables            :   53809  [Nneg: 1,  Box: 22004,  Free: 4464,
                                 Binary: 27340]
Objective nonzeros   :    8979
Linear constraints   :  123253  [Less: 41346,  Greater: 59096,  Equal: 22811]
  Nonzeros           :  293288
  RHS nonzeros       :   67490

Variables            : Min LB: -5000.000        Max UB: 1000000.       
Objective nonzeros   : Min   : 0.05000000       Max   : 722.0000       
Linear constraints   :
  Nonzeros           : Min   : 0.05000000       Max   : 1000000.       
  RHS nonzeros       : Min   : 0.05000000       Max   : 1000000.       
CPLEX> CPXPARAM_Parallel                                -1
CPXPARAM_Emphasis_MIP                            1
CPXPARAM_DetTimeLimit                            75000
CPXPARAM_MIP_Tolerances_MIPGap                   0.01
CPXPARAM_MIP_Tolerances_Integrality              9.9999999999999998e-13
Tried aggregator 4 times.
MIP Presolve eliminated 88736 rows and 18992 columns.
MIP Presolve added 3402 rows and 0 columns.
MIP Presolve modified 24742 coefficients.
Aggregator did 12989 substitutions.
Reduced MIP has 24930 rows, 21272 columns, and 71127 nonzeros.
Reduced MIP has 8395 binaries, 0 generals, 0 SOSs, and 0 indicators.
Presolve time = 0.34 sec. (196.21 ticks)
Probing fixed 433 vars, tightened 6023 bounds.
Probing time = 0.06 sec. (19.35 ticks)
Tried aggregator 2 times.
MIP Presolve eliminated 986 rows and 866 columns.
MIP Presolve modified 3030 coefficients.
Aggregator did 41 substitutions.
Reduced MIP has 23903 rows, 20365 columns, and 68166 nonzeros.
Reduced MIP has 7962 binaries, 0 generals, 0 SOSs, and 0 indicators.
Presolve time = 0.11 sec. (87.20 ticks)
Probing fixed 0 vars, tightened 338 bounds.
Probing time = 0.13 sec. (23.01 ticks)
Clique table members: 42777.
MIP emphasis: integer feasibility.
MIP search method: dynamic search.
Parallel mode: opportunistic, using up to 32 threads.
Root relaxation solution time = 0.50 sec. (745.23 ticks)

        Nodes                                         Cuts/
   Node  Left     Objective  IInf  Best Integer    Best Bound    ItCnt     Gap

      0     0     9142.3933   237                   9142.3933     6365         
      0     0     9142.3933     7                    Cuts: 32     6376         
      0     0     9141.5889     7                     Cuts: 5     6385         
      0     0     9136.5744     7                     Cuts: 3     6388         
      0     7     9070.7659     2                   Covers: 2     6415         
Elapsed time = 3.97 sec. (1940.36 ticks, tree = 0.02 MB, solutions = 0)
*   463    87      integral     0     8875.1688     9102.5993     6908    2.56%
   1163   250     8976.0138     4     8875.1688     9041.4762    16838    1.87%
   1588   243        cutoff           8875.1688     9041.4762    18073    1.87%
   1636   202     8966.1461     7     8875.1688     9041.4762    19555    1.87%

Clique cuts applied:  1
Cover cuts applied:  7
Implied bound cuts applied:  2
Flow cuts applied:  21
Mixed integer rounding cuts applied:  4
Gomory fractional cuts applied:  6

Root node processing (before b&c):
  Real time             =    2.61 sec. (1907.32 ticks)
Parallel b&c, 32 threads:
  Real time             =    4.70 sec. (997.52 ticks)
  Sync time (average)   =    1.22 sec.
  Wait time (average)   =    0.00 sec.
                          ------------
Total (root+branch&cut) =    7.31 sec. (2904.84 ticks)

Solution pool: 2 solutions saved.

MIP - Integer optimal, tolerance (0.01/1e-06):  Objective =  8.8751688115e+03
Current MIP best bound =  8.9615129431e+03 (gap = 86.3441, 0.97%)
Solution time =    7.33 sec.  Iterations = 19862  Nodes = 1647 (200)
Deterministic time = 2904.99 ticks  (396.42 ticks/sec)

CPLEX> Incumbent solution written to file 'C:\Users\llavin\Desktop\test826\logs\tmprtg6ndp2.cplex.sol'.
CPLEX> NOTE: no warmstart specified for MIP iteration, default behavior is true
NOTE: resolving with all competitive generators using storage-only solution to warmstart
Solving...

Welcome to IBM(R) ILOG(R) CPLEX(R) Interactive Optimizer 12.9.0.0
  with Simplex, Mixed Integer & Barrier Optimizers
5725-A06 5725-A29 5724-Y48 5724-Y49 5724-Y54 5724-Y55 5655-Y21
Copyright IBM Corp. 1988, 2019.  All Rights Reserved.

Type 'help' for a list of available commands.
Type 'help' followed by a command name for more
information on commands.

CPLEX> Logfile 'cplex.log' closed.
Logfile 'C:\Users\llavin\Desktop\test826\logs\tmpy97gvqh1.cplex.log' open.
CPLEX> New value for parallel optimization mode: -1
CPLEX> New value for emphasis for MIP optimization: 1
CPLEX> New value for mixed integer optimality gap tolerance: 0.01
CPLEX> New value for integrality tolerance: 1e-12
CPLEX> New value for deterministic time limit in ticks: 75000
CPLEX> Problem 'C:\Users\llavin\Desktop\test826\logs\tmpldntmxgr.pyomo.lp' read.
Read time = 0.22 sec. (13.94 ticks)
CPLEX> MIP start file 'C:\Users\llavin\Desktop\test826\logs\tmpfdw6zk30.cplex.mst' read.
CPLEX> Problem name         : C:\Users\llavin\Desktop\test826\logs\tmpldntmxgr.pyomo.lp
Objective sense      : Maximize
Variables            :   54529  [Nneg: 1,  Box: 22724,  Free: 4464,
                                 Binary: 27340]
Objective nonzeros   :    9675
Linear constraints   :  123253  [Less: 41346,  Greater: 59096,  Equal: 22811]
  Nonzeros           :  293288
  RHS nonzeros       :   67490

Variables            : Min LB: -5000.000        Max UB: 1000000.       
Objective nonzeros   : Min   : 0.05000000       Max   : 722.0000       
Linear constraints   :
  Nonzeros           : Min   : 0.05000000       Max   : 1000000.       
  RHS nonzeros       : Min   : 0.05000000       Max   : 1000000.       
CPLEX> CPXPARAM_Parallel                                -1
CPXPARAM_Emphasis_MIP                            1
CPXPARAM_DetTimeLimit                            75000
CPXPARAM_MIP_Tolerances_MIPGap                   0.01
CPXPARAM_MIP_Tolerances_Integrality              9.9999999999999998e-13
Warning:  No solution found from 1 MIP starts.
Retaining values of one MIP start for possible repair.
Tried aggregator 4 times.
MIP Presolve eliminated 88736 rows and 19712 columns.
MIP Presolve added 3402 rows and 0 columns.
MIP Presolve modified 24742 coefficients.
Aggregator did 12989 substitutions.
Reduced MIP has 24930 rows, 21272 columns, and 71127 nonzeros.
Reduced MIP has 8395 binaries, 0 generals, 0 SOSs, and 0 indicators.
Presolve time = 0.33 sec. (196.64 ticks)
Probing fixed 433 vars, tightened 6023 bounds.
Probing time = 0.06 sec. (19.35 ticks)
Tried aggregator 2 times.
MIP Presolve eliminated 986 rows and 866 columns.
MIP Presolve modified 3030 coefficients.
Aggregator did 41 substitutions.
Reduced MIP has 23903 rows, 20365 columns, and 68166 nonzeros.
Reduced MIP has 7962 binaries, 0 generals, 0 SOSs, and 0 indicators.
Presolve time = 0.11 sec. (87.21 ticks)
Probing fixed 0 vars, tightened 338 bounds.
Probing time = 0.13 sec. (23.01 ticks)
Clique table members: 42777.
MIP emphasis: integer feasibility.
MIP search method: dynamic search.
Parallel mode: opportunistic, using up to 32 threads.
Root relaxation solution time = 0.47 sec. (743.48 ticks)

        Nodes                                         Cuts/
   Node  Left     Objective  IInf  Best Integer    Best Bound    ItCnt     Gap

      0     0    27863.7729   242                  27863.7729     6308         
      0     0    27863.5964    24                    Cuts: 51     6335         
      0     0    27842.0427    21                    Cuts: 27     6354         
      0     0    27842.0427    25                     Cuts: 4     6362         
Repair heuristic found nothing.
      0    20    27486.9781     9                     Cuts: 5     6485         
Elapsed time = 4.72 sec. (2053.07 ticks, tree = 0.02 MB, solutions = 0)
    670   481    27484.0842     8                  27822.6864     9925         
   1181   875    27394.6619     8                  27822.6864    15997         
   1792  1376    infeasible                        27822.6864    27739         
   2398  1965    27150.5817     9                  27822.6864    43175         
   3019  2058    27606.9105     8                  27822.6864    47010         
   3567  2520    27569.9134     7                  27814.0366    74189         
   4012  2792   -58551.0598    37                  27814.0366    86323         
*  4068+  974                        27495.8366    27814.0366             1.16%
   4498   825    27806.0431    18    27495.8366    27806.0431   104908    1.13%

Clique cuts applied:  2
Cover cuts applied:  15
Implied bound cuts applied:  8
Flow cuts applied:  38
Mixed integer rounding cuts applied:  2
Gomory fractional cuts applied:  7

Root node processing (before b&c):
  Real time             =    2.95 sec. (2014.38 ticks)
Parallel b&c, 32 threads:
  Real time             =   11.47 sec. (2324.28 ticks)
  Sync time (average)   =    1.64 sec.
  Wait time (average)   =    0.00 sec.
                          ------------
Total (root+branch&cut) =   14.42 sec. (4338.65 ticks)

Solution pool: 1 solution saved.

MIP - Integer optimal, tolerance (0.01/1e-06):  Objective =  2.7495836590e+04
Current MIP best bound =  2.7758993829e+04 (gap = 263.157, 0.96%)
Solution time =   14.45 sec.  Iterations = 116588  Nodes = 4660 (688)
Deterministic time = 4338.81 ticks  (300.20 ticks/sec)

CPLEX> Incumbent solution written to file 'C:\Users\llavin\Desktop\test826\logs\tmp1465ddlx.cplex.sol'.
CPLEX> Exporting results... 
